6
3
2
3 24
4 24
2
5 42
6 42
2
7 22
8 22
3
2
3 24
4 24
2
5 42
6 42
2
7 22
8 22
3
2
3 24
4 24
2
5 42
6 42
2
7 22
8 22
3
2
3 24
4 24
2
5 42
6 42
2
7 22
8 22
4
2
1 20
2 20
2
3 28
4 28
2
5 36
6 36
2
7 9
8 9
4
2
1 20
2 20
2
3 28
4 28
2
5 36
6 36
2
7 18
8 18
9
0 6 8 6 8 10 12 10 12
8 0 2 8 2 4 6 4 6
6 10 0 10 8 2 4 6 4
12 4 6 0 6 8 10 8 10
10 2 4 6 0 6 8 2 8
8 8 2 8 6 0 6 4 2
6 10 8 10 8 6 0 6 4
12 4 6 4 2 8 10 0 10
10 6 4 6 4 2 8 2 0
2
